/* Objective function */
min: - 0.0054fpdi - 0.0054fpdo + 0.05apdi + 0.05apdo + 0.0002pi + 0.0002po - 0.5fsi - 0.5fso;

apdi = 0.0 hi + 0.0 li + 12.81429 ri + -0.0619 ci + -1.93891 si + 0.0 ti + 0.11116 fTempIi + 0.01803 ami + -154.61952;
asi = 0.0 hi + -0.0 li + -0.00014 ri + -0.00056 ci + -5e-05 si + -0.0 ti + -0.00024 fTempIi + 0.00017 ami + 0.00992;
aTempOi = 0.0 hi + 0.0 li + 0.27266 ri + -0.10346 ci + -0.05601 si + -0.0 ti + 0.78958 fTempIi + -0.00052 ami + 6.78126;
fpdi = 0.0 hi + -0.0 li + 38.83371 ri + -187.81825 ci + -0.0863 si + -0.0 ti + -2.00497 fTempIi + 0.00081 ami + 1070.04399;
fsi = 0.0 hi + -0.0 li + -0.00013 ri + -0.30843 ci + 3e-05 si + -0.0 ti + 0.00057 fTempIi + -0.0 ami + 3.39244;
fTempOi = 0.0 hi + 0.0 li + -0.26873 ri + 0.10444 ci + 0.05545 si + 0.0 ti + 0.23429 fTempIi + -0.00048 ami + 10.02536;
pi = 0.0 hi + 0.0 li + 136.28333 ri + 3.53333 ci + -10.58857 si + 0.0 ti + -0.0 fTempIi + -0.0 ami + 405.40476;

apdo = 0.0 ho + -0.0 lo + 10.91071 ro + 0.0119 co + -1.50948 so + 0.0 to + 0.10571 fTempIo + 0.01611 amo + -123.99;
aso = 0.0 ho + 0.0 lo + 0.0 ro + 0.0 co + 0.0 so + 0.0 to + 0.0 fTempIo + 0.00017 amo + -0.00286;
aTempOo = 0.0 ho + -0.0 lo + -0.29793 ro + 0.10993 co + 0.04615 so + 0.0 to + 0.76456 fTempIo + 0.00053 amo + -0.31488;
fpdo = 0.0 ho + 0.0 lo + 37.9318 ro + -187.07369 co + 0.0703 so + -0.0 to + -2.02246 fTempIo + -0.0009 amo + 1064.61308;
fso = 0.0 ho + 0.0 lo + 0.00016 ro + -0.30858 co + -3e-05 so + 0.0 to + 0.00056 fTempIo + 0.0 amo + 3.39273;
fTempOo = 0.0 ho + -0.0 lo + 0.29446 ro + -0.10655 co + -0.04542 so + 0.0 to + 0.25315 fTempIo + 0.00053 amo + 12.10415;
po = 0.0 ho + -0.0 lo + 184.125 ro + 3.55 co + -16.913 so + 0.0 to + -0.0 fTempIo + -0.0 amo + 717.185;

/* Variable bounds */
aTempOi > 18.6;
1 =r6i + r8i + r10i + r12i + r14i;
ri =6r6i + 8r8i + 10r10i + 12r12i + 14r14i;
1 =s25i + s30i + s40i;
si =25s25i + 30s30i + 40s40i;
ti = 2;
apdi > 100;
apdi < 300;
asi > 0;
asi < 3;
aTempOi > 5;
aTempOi < 25;
fpdi > 100;
fpdi < 300;
fsi > 0;
fsi < 1.25;
fTempOi > 5;
fTempOi < 25;
pi > 0;
ri > 6;
ri < 14;
ci > 1;
ci < 7;
si > 25;
si < 60;
ti > 1;
ti < 3;
fTempIi > 5;
fTempIi < 25;

/* aTempOo < 11.4; */
1 =r6o + r8o + r10o + r12o + r14o;
ro =6r6o + 8r8o + 10r10o + 12r12o + 14r14o;
1 =s30o + s40o + s50o + s60o;
so =30s30o + 40s40o + 50s50o + 60s60o;
to = 3;
apdo > 100;
apdo < 300;
aso > 0;
aso < 3;
aTempOo > 5;
aTempOo < 25;
fpdo > 100;
fpdo < 300;
fso > 0;
fso < 1.25;
fTempOo > 5;
fTempOo < 25;
po > 0;
ro > 6;
ro < 14;
co > 1;
co < 7;
so > 25;
so < 60;
to > 1;
to < 3;
fTempIo > 5;
fTempIo < 25;
int hi,li,si,ti,ci,ri,ami;
int ho,lo,so,to,co,ro,amo;
bin s25i,s30i,s40i,s50i,s60i,r6i,r8i,r10i,r12i,r14i;
bin s25o,s30o,s40o,s50o,s60o,r6o,r8o,r10o,r12o,r14o;
